(set-logic QF_S)
(declare-fun var0 () String)
(declare-fun var1 () String)
(declare-fun var2 () String)
(declare-fun var3 () String)
(declare-fun var4 () String)
(declare-fun var5 () String)
(declare-fun var6 () String)
(declare-fun var7 () String)
(declare-fun var8 () String)
(declare-fun var9 () String)
(declare-fun var10 () String)
(declare-fun var11 () String)
(declare-fun var12 () String)
(declare-fun var13 () String)
(declare-fun var14 () String)
(declare-fun var15 () String)
(declare-fun var16 () String)
(declare-fun var17 () String)
(declare-fun var18 () String)
(declare-fun var19 () String)
(declare-fun var20 () String)
(declare-fun var21 () String)
(declare-fun var22 () String)
(declare-fun var23 () String)
(declare-fun var24 () String)
(declare-fun var25 () String)
(declare-fun var26 () String)
(declare-fun var27 () String)
(declare-fun var28 () String)
(declare-fun var29 () String)
(declare-fun var30 () String)
(declare-fun var31 () String)
(declare-fun var32 () String)
(declare-fun var33 () String)
(declare-fun var34 () String)
(declare-fun var35 () String)
(declare-fun var36 () String)
(declare-fun var37 () String)
(declare-fun var38 () String)
(declare-fun var39 () String)
(declare-fun var40 () String)
(declare-fun var41 () String)
(declare-fun var42 () String)
(declare-fun var43 () String)
(declare-fun var44 () String)
(declare-fun var45 () String)
(declare-fun var46 () String)
(declare-fun var47 () String)
(declare-fun var48 () String)
(declare-fun var49 () String)
(declare-fun var50 () String)
(declare-fun var51 () String)
(declare-fun var52 () String)
(declare-fun var53 () String)
(declare-fun var54 () String)
(declare-fun var55 () String)
(declare-fun var56 () String)
(declare-fun var57 () String)
(declare-fun var58 () String)
(declare-fun var59 () String)
(declare-fun var60 () String)
(assert (= var0 (str.++ var1 var2)))
(assert (= var2 (str.++ var3 var4)))
(assert (= var4 (str.++ var5 var6)))
(assert (= var6 (str.++ var7 var8)))
(assert (= var8 (str.++ var9 var10)))
(assert (= var10 (str.++ var11 var12)))
(assert (= var12 (str.++ var13 var14)))
(assert (= var14 (str.++ var15 var16)))
(assert (= var16 (str.++ var17 var18)))
(assert (= var18 (str.++ var19 var20)))
(assert (= var20 (str.++ var21 var22)))
(assert (= var22 (str.++ var23 var24)))
(assert (= var24 (str.++ var25 var26)))
(assert (= var26 (str.++ var27 var28)))
(assert (= var28 (str.++ var29 var30)))
(assert (= var30 (str.++ var31 var32)))
(assert (= var32 (str.++ var33 var34)))
(assert (= var34 (str.++ var35 var36)))
(assert (= var36 (str.++ var37 var38)))
(assert (= var38 (str.++ var39 var40)))
(assert (= var40 (str.++ var41 var42)))
(assert (= var42 (str.++ var43 var44)))
(assert (= var44 (str.++ var45 var46)))
(assert (= var46 (str.++ var47 var48)))
(assert (= var48 (str.++ var49 var50)))
(assert (= var50 (str.++ var51 var52)))
(assert (= var52 (str.++ var53 var54)))
(assert (= var54 (str.++ var55 var56)))
(assert (= var56 (str.++ var57 var58)))
(assert (= var58 (str.++ var59 var60)))
(assert (= var0 "solution"))
(assert (= "%" (str.at var34 761)))
(assert (= "$" (str.at var3 735)))
(assert (= "k" (str.at var11 617)))
(assert (= "^" (str.at var29 512)))
(assert (= "s" (str.at var28 757)))
(assert (= "\\" (str.at var19 22)))
(assert (= "f" (str.at var5 479)))
(assert (= "7" (str.at var43 745)))
(assert (= "4" (str.at var3 326)))
(assert (= "I" (str.at var31 547)))
(assert (= "z" (str.at var56 11)))
(assert (= "9" (str.at var30 320)))
(assert (= "V" (str.at var48 235)))
(assert (= "*" (str.at var47 1)))
(assert (= "|" (str.at var49 937)))
(assert (= "8" (str.at var9 149)))
(assert (= "=" (str.at var12 495)))
(assert (= "H" (str.at var29 518)))
(assert (= "M" (str.at var29 426)))
(assert (= "@" (str.at var55 471)))
(assert (= "O" (str.at var60 254)))
(assert (= "<" (str.at var41 486)))
(assert (= "_" (str.at var55 698)))
(assert (= "6" (str.at var50 810)))
(assert (= "B" (str.at var5 210)))
(assert (= "o" (str.at var26 232)))
(assert (= "P" (str.at var55 876)))
(assert (= "H" (str.at var17 24)))
(assert (= "G" (str.at var36 382)))
(assert (= "I" (str.at var37 787)))
(assert (= "H" (str.at var19 211)))
(assert (= "G" (str.at var50 732)))
(assert (= "f" (str.at var11 501)))
(assert (= "w" (str.at var12 273)))
(assert (= "u" (str.at var9 437)))
(assert (= "h" (str.at var36 892)))
(assert (= "}" (str.at var13 717)))
(assert (= "l" (str.at var1 631)))
(assert (= "v" (str.at var48 457)))
(assert (= "|" (str.at var12 516)))
(assert (= "K" (str.at var27 501)))
(assert (= "l" (str.at var17 180)))
(assert (= "W" (str.at var20 105)))
(assert (= "," (str.at var60 80)))
(assert (= "l" (str.at var19 609)))
(assert (= "^" (str.at var1 426)))
(assert (= "s" (str.at var34 608)))
(assert (= "@" (str.at var43 722)))
(assert (= "o" (str.at var39 382)))
(assert (= "N" (str.at var2 42)))
(assert (= "f" (str.at var48 510)))
(assert (= "," (str.at var53 720)))
(assert (= "B" (str.at var47 162)))
(assert (= "%" (str.at var16 732)))
(assert (= "r" (str.at var47 166)))
(assert (= "b" (str.at var25 770)))
(assert (= "k" (str.at var12 839)))
(assert (= "F" (str.at var5 224)))
(assert (= "Y" (str.at var2 0)))
(assert (= "s" (str.at var44 325)))
(assert (= "d" (str.at var22 598)))
(assert (= "R" (str.at var50 671)))
(assert (= "A" (str.at var58 714)))
(assert (= "O" (str.at var15 59)))
(assert (= "g" (str.at var14 258)))
(assert (= "^" (str.at var60 38)))
(assert (= "T" (str.at var52 439)))
(assert (= "5" (str.at var8 378)))
(assert (= "@" (str.at var57 786)))
(assert (= "f" (str.at var51 361)))
(assert (= "`" (str.at var59 66)))
(assert (= "<" (str.at var56 240)))
(assert (= "a" (str.at var6 415)))
(assert (= "*" (str.at var20 341)))
(assert (= "x" (str.at var19 639)))
(assert (= "m" (str.at var38 991)))
(assert (= "]" (str.at var7 586)))
(assert (= "@" (str.at var39 692)))
(assert (= "." (str.at var3 547)))
(assert (= "H" (str.at var36 688)))
(assert (= "7" (str.at var20 381)))
(assert (= "S" (str.at var6 806)))
(assert (= "N" (str.at var17 223)))
(assert (= "6" (str.at var12 453)))
(assert (= "R" (str.at var37 185)))
(assert (= "v" (str.at var10 484)))
(assert (= "H" (str.at var5 162)))
(assert (= ">" (str.at var20 234)))
(assert (= "z" (str.at var9 217)))
(assert (= "[" (str.at var8 233)))
(assert (= "x" (str.at var12 6)))
(assert (= "[" (str.at var46 752)))
(assert (= ")" (str.at var10 401)))
(assert (= "8" (str.at var48 472)))
(assert (= "!" (str.at var31 122)))
(assert (= "p" (str.at var17 45)))
(assert (= "&" (str.at var31 511)))
(assert (= ">" (str.at var7 367)))
(assert (= "l" (str.at var54 429)))
(assert (= "G" (str.at var1 441)))
(assert (= "s" (str.at var15 117)))
(assert (= "O" (str.at var2 68)))
(assert (= "b" (str.at var25 66)))
(assert (= "]" (str.at var59 820)))
(assert (= "e" (str.at var17 339)))
(assert (= "W" (str.at var1 28)))
(assert (= "q" (str.at var52 547)))
(assert (= "7" (str.at var21 102)))
(assert (= "u" (str.at var28 627)))
(assert (= "u" (str.at var41 533)))
(assert (= "C" (str.at var36 829)))
(assert (= "l" (str.at var6 915)))
(assert (= "u" (str.at var9 786)))
(assert (= "I" (str.at var45 996)))
(assert (= "E" (str.at var46 67)))
(assert (= "/" (str.at var0 286)))
(assert (= "p" (str.at var25 138)))
(assert (= "!" (str.at var8 327)))
(assert (= "F" (str.at var19 909)))
(assert (= "v" (str.at var7 496)))
(assert (= "/" (str.at var31 569)))
(assert (= "o" (str.at var28 940)))
(assert (= "N" (str.at var51 227)))
(assert (= "v" (str.at var51 702)))
(assert (= "l" (str.at var35 489)))
(assert (= "w" (str.at var2 922)))
(assert (= "Y" (str.at var51 632)))
(assert (= "U" (str.at var13 175)))
(assert (= "v" (str.at var37 62)))
(assert (= "X" (str.at var43 435)))
(assert (= "w" (str.at var24 94)))
(assert (= "r" (str.at var59 860)))
(assert (= "&" (str.at var53 448)))
(assert (= "9" (str.at var42 450)))
(assert (= "}" (str.at var22 844)))
(assert (= "S" (str.at var47 945)))
(assert (= "Q" (str.at var49 806)))
(assert (= "J" (str.at var15 779)))
(assert (= "c" (str.at var49 378)))
(assert (= "L" (str.at var34 773)))
(assert (= "X" (str.at var38 285)))
(assert (= "B" (str.at var7 754)))
(assert (= "C" (str.at var23 733)))
(assert (= "k" (str.at var33 358)))
(assert (= "z" (str.at var1 357)))
(assert (= "A" (str.at var28 74)))
(assert (= "N" (str.at var29 882)))
(assert (= "^" (str.at var56 249)))
(assert (= "|" (str.at var27 183)))
(assert (= "t" (str.at var27 420)))
(assert (= "=" (str.at var22 49)))
(assert (= "T" (str.at var10 425)))
(assert (= "a" (str.at var1 876)))
(assert (= "+" (str.at var15 473)))
(assert (= "F" (str.at var55 451)))
(assert (= "[" (str.at var5 500)))
(assert (= "M" (str.at var9 196)))
(assert (= "." (str.at var33 450)))
(assert (= ">" (str.at var22 806)))
(assert (= "8" (str.at var4 704)))
(assert (= "." (str.at var60 810)))
(assert (= "9" (str.at var0 85)))
(assert (= """" (str.at var41 336)))
(assert (= "$" (str.at var13 527)))
(assert (= "B" (str.at var40 526)))
(assert (= "/" (str.at var29 883)))
(assert (= "0" (str.at var1 230)))
(assert (= "g" (str.at var8 809)))
(assert (= "@" (str.at var39 126)))
(assert (= "c" (str.at var26 43)))
(assert (= "w" (str.at var55 437)))
(assert (= "3" (str.at var44 12)))
(assert (= "Y" (str.at var18 119)))
(assert (= "Z" (str.at var25 109)))
(assert (= "|" (str.at var9 288)))
(assert (= "^" (str.at var12 812)))
(assert (= "x" (str.at var52 766)))
(assert (= ":" (str.at var15 772)))
(assert (= "7" (str.at var59 106)))
(assert (= "k" (str.at var15 344)))
(assert (= "D" (str.at var17 335)))
(assert (= "j" (str.at var7 893)))
(assert (= "N" (str.at var16 608)))
(assert (= "x" (str.at var25 71)))
(assert (= "$" (str.at var3 473)))
(assert (= "A" (str.at var41 179)))
(assert (= "D" (str.at var28 695)))
(assert (= "#" (str.at var24 539)))
(assert (= "^" (str.at var6 374)))
(assert (= ";" (str.at var36 501)))
(assert (= "^" (str.at var23 502)))
(assert (= "O" (str.at var9 488)))
(assert (= "_" (str.at var31 598)))
(assert (= "{" (str.at var24 124)))
(assert (= "F" (str.at var59 291)))
(assert (= "9" (str.at var15 489)))
(assert (= "{" (str.at var40 411)))
(assert (= "?" (str.at var20 295)))
(assert (= "1" (str.at var23 22)))
(assert (= "m" (str.at var53 193)))
(assert (= "L" (str.at var40 893)))
(assert (= "x" (str.at var36 419)))
(assert (= "u" (str.at var55 972)))
(assert (= "I" (str.at var20 584)))
(assert (= "@" (str.at var31 485)))
(assert (= "~" (str.at var21 468)))
(assert (= "o" (str.at var3 535)))
(assert (= "H" (str.at var51 109)))
(assert (= "D" (str.at var58 978)))
(assert (= "z" (str.at var44 779)))
(assert (= "K" (str.at var51 141)))
(assert (= "z" (str.at var14 814)))
(assert (= "b" (str.at var45 578)))
(assert (= "T" (str.at var13 209)))
(assert (= "'" (str.at var44 516)))
(assert (= "V" (str.at var33 471)))
(assert (= "v" (str.at var58 179)))
(assert (= "7" (str.at var33 440)))
(assert (= "c" (str.at var29 942)))
(assert (= "#" (str.at var60 358)))
(assert (= "R" (str.at var7 723)))
(assert (= "g" (str.at var27 24)))
(assert (= "I" (str.at var24 611)))
(assert (= """" (str.at var54 156)))
(assert (= "}" (str.at var21 181)))
(assert (= "2" (str.at var32 183)))
(assert (= ")" (str.at var17 911)))
(assert (= "z" (str.at var29 43)))
(assert (= "a" (str.at var7 798)))
(assert (= "^" (str.at var17 614)))
(assert (= "o" (str.at var3 593)))
(assert (= "^" (str.at var57 620)))
(assert (= "P" (str.at var58 57)))
(assert (= "." (str.at var55 41)))
(assert (= "\\" (str.at var35 755)))
(assert (= "b" (str.at var11 517)))
(assert (= "J" (str.at var51 873)))
(assert (= "2" (str.at var12 537)))
(assert (= "k" (str.at var49 827)))
(assert (= "T" (str.at var7 925)))
(assert (= "b" (str.at var54 838)))
(assert (= "r" (str.at var46 852)))
(assert (= "0" (str.at var43 744)))
(assert (= "o" (str.at var8 907)))
(assert (= "w" (str.at var23 328)))
(assert (= "," (str.at var42 540)))
(assert (= "I" (str.at var60 592)))
(assert (= "j" (str.at var21 125)))
(assert (= "x" (str.at var35 532)))
(assert (= ")" (str.at var1 511)))
(assert (= "R" (str.at var55 610)))
(assert (= "V" (str.at var19 79)))
(assert (= "-" (str.at var54 186)))
(assert (= "7" (str.at var55 586)))
(assert (= "g" (str.at var52 105)))
(assert (= "Y" (str.at var38 552)))
(assert (= "s" (str.at var49 15)))
(assert (= "W" (str.at var7 580)))
(assert (= "W" (str.at var30 8)))
(assert (= "]" (str.at var43 365)))
(assert (= ";" (str.at var31 236)))
(assert (= "B" (str.at var29 225)))
(assert (= "j" (str.at var19 104)))
(assert (= "X" (str.at var3 702)))
(assert (= "d" (str.at var24 465)))
(assert (= "e" (str.at var50 319)))
(assert (= "t" (str.at var32 263)))
(assert (= "=" (str.at var8 990)))
(assert (= "\\" (str.at var48 745)))
(assert (= "^" (str.at var20 597)))
(assert (= "o" (str.at var14 629)))
(assert (= "(" (str.at var44 307)))
(assert (= "1" (str.at var56 467)))
(assert (= "n" (str.at var12 602)))
(assert (= "/" (str.at var10 206)))
(assert (= "_" (str.at var58 641)))
(assert (= "j" (str.at var59 391)))
(assert (= "4" (str.at var21 293)))
(assert (= "(" (str.at var37 970)))
(assert (= "h" (str.at var0 335)))
(assert (= "," (str.at var23 44)))
(assert (= "N" (str.at var50 52)))
(assert (= "{" (str.at var41 975)))
(assert (= "9" (str.at var32 728)))
(assert (= "q" (str.at var11 422)))
(assert (= "E" (str.at var51 866)))
(assert (= "y" (str.at var41 137)))
(assert (= ")" (str.at var22 279)))
(assert (= "7" (str.at var11 341)))
(assert (= "." (str.at var52 175)))
(assert (= "-" (str.at var58 71)))
(assert (= "v" (str.at var30 570)))
(assert (= "u" (str.at var30 353)))
(assert (= "#" (str.at var31 278)))
(assert (= "d" (str.at var59 930)))
(assert (= "c" (str.at var37 785)))
(assert (= "h" (str.at var18 270)))
(assert (= "Z" (str.at var11 838)))
(assert (= "X" (str.at var18 172)))
(assert (= "D" (str.at var16 988)))
(assert (= "y" (str.at var8 555)))
(assert (= "d" (str.at var31 46)))
(assert (= "c" (str.at var51 816)))
(assert (= ")" (str.at var5 875)))
(assert (= "A" (str.at var38 562)))
(assert (= "R" (str.at var38 280)))
(assert (= "?" (str.at var46 113)))
(assert (= "^" (str.at var27 545)))
(assert (= "!" (str.at var44 83)))
(assert (= "*" (str.at var1 881)))
(assert (= "u" (str.at var8 190)))
(assert (= "1" (str.at var32 780)))
(assert (= "S" (str.at var38 912)))
(assert (= "z" (str.at var1 304)))
(assert (= "j" (str.at var31 174)))
(assert (= "<" (str.at var58 132)))
(assert (= "s" (str.at var35 481)))
(assert (= """" (str.at var49 687)))
(assert (= "d" (str.at var55 75)))
(assert (= "K" (str.at var33 611)))
(assert (= "=" (str.at var51 66)))
(assert (= "<" (str.at var10 212)))
(assert (= "K" (str.at var24 665)))
(assert (= "l" (str.at var17 342)))
(assert (= "f" (str.at var34 701)))
(assert (= "<" (str.at var36 591)))
(assert (= "l" (str.at var39 561)))
(assert (= "*" (str.at var13 701)))
(assert (= "&" (str.at var53 875)))
(assert (= "`" (str.at var30 452)))
(assert (= "A" (str.at var44 343)))
(assert (= "-" (str.at var0 104)))
(assert (= "S" (str.at var8 832)))
(assert (= "(" (str.at var1 889)))
(assert (= "G" (str.at var20 720)))
(assert (= "7" (str.at var9 213)))
(assert (= "9" (str.at var52 623)))
(assert (= "?" (str.at var38 230)))
(assert (= """" (str.at var22 579)))
(assert (= "a" (str.at var8 493)))
(assert (= "}" (str.at var29 229)))
(assert (= "c" (str.at var47 907)))
(assert (= "x" (str.at var33 68)))
(assert (= "H" (str.at var6 97)))
(assert (= "H" (str.at var33 919)))
(assert (= "%" (str.at var56 571)))
(assert (= "d" (str.at var11 154)))
(assert (= "&" (str.at var25 459)))
(assert (= "%" (str.at var8 758)))
(assert (= "a" (str.at var26 249)))
(assert (= "D" (str.at var4 777)))
(assert (= "V" (str.at var23 501)))
(assert (= "]" (str.at var37 919)))
(assert (= "J" (str.at var55 88)))
(assert (= "-" (str.at var21 956)))
(assert (= "r" (str.at var36 796)))
(assert (= "8" (str.at var58 29)))
(assert (= "'" (str.at var44 114)))
(assert (= "_" (str.at var5 380)))
(assert (= "R" (str.at var49 902)))
(assert (= "?" (str.at var38 834)))
(assert (= "r" (str.at var39 751)))
(assert (= "`" (str.at var51 529)))
(assert (= "D" (str.at var19 199)))
(assert (= "I" (str.at var54 232)))
(assert (= "D" (str.at var16 860)))
(assert (= "~" (str.at var46 529)))
(assert (= "u" (str.at var51 48)))
(assert (= "3" (str.at var10 790)))
(assert (= "~" (str.at var24 70)))
(assert (= "V" (str.at var52 389)))
(assert (= "A" (str.at var9 350)))
(assert (= "f" (str.at var27 200)))
(assert (= "," (str.at var16 644)))
(assert (= "9" (str.at var26 219)))
(assert (= "-" (str.at var43 551)))
(assert (= "v" (str.at var30 376)))
(assert (= "w" (str.at var1 373)))
(assert (= "B" (str.at var25 670)))
(assert (= "d" (str.at var50 556)))
(assert (= "|" (str.at var7 932)))
(assert (= "G" (str.at var0 223)))
(assert (= "-" (str.at var46 577)))
(assert (= "i" (str.at var10 965)))
(assert (= "%" (str.at var28 341)))
(assert (= "K" (str.at var12 733)))
(assert (= "d" (str.at var6 521)))
(assert (= "%" (str.at var17 269)))
(assert (= "L" (str.at var46 873)))
(assert (= "{" (str.at var23 594)))
(assert (= "D" (str.at var40 160)))
(assert (= "b" (str.at var6 836)))
(assert (= "^" (str.at var40 76)))
(assert (= "!" (str.at var0 913)))
(assert (= "F" (str.at var31 866)))
(assert (= "d" (str.at var15 145)))
(assert (= "@" (str.at var47 63)))
(assert (= "8" (str.at var2 117)))
(assert (= "J" (str.at var7 133)))
(assert (= "y" (str.at var42 761)))
(assert (= "k" (str.at var26 404)))
(assert (= "}" (str.at var44 812)))
(assert (= "4" (str.at var45 422)))
(assert (= "u" (str.at var12 132)))
(assert (= "9" (str.at var8 731)))
(assert (= "C" (str.at var12 212)))
(assert (= "[" (str.at var43 237)))
(assert (= "C" (str.at var25 308)))
(assert (= "R" (str.at var43 328)))
(assert (= "T" (str.at var46 294)))
(assert (= "u" (str.at var20 509)))
(assert (= "r" (str.at var36 941)))
(assert (= "j" (str.at var7 132)))
(assert (= "1" (str.at var55 492)))
(assert (= "X" (str.at var41 979)))
(assert (= "K" (str.at var5 391)))
(assert (= "*" (str.at var19 712)))
(assert (= "u" (str.at var20 309)))
(assert (= "p" (str.at var26 411)))
(assert (= "h" (str.at var18 58)))
(assert (= "B" (str.at var10 623)))
(assert (= "D" (str.at var3 433)))
(assert (= "e" (str.at var30 628)))
(assert (= "s" (str.at var2 318)))
(assert (= "e" (str.at var0 954)))
(assert (= "(" (str.at var60 86)))
(assert (= "k" (str.at var22 277)))
(assert (= "m" (str.at var9 828)))
(assert (= "O" (str.at var45 876)))
(assert (= "2" (str.at var52 54)))
(assert (= "f" (str.at var53 88)))
(assert (= "v" (str.at var11 421)))
(assert (= "z" (str.at var48 216)))
(assert (= "w" (str.at var36 102)))
(assert (= "V" (str.at var18 867)))
(assert (= "t" (str.at var13 381)))
(assert (= "w" (str.at var21 297)))
(assert (= "'" (str.at var42 148)))
(assert (= "4" (str.at var18 850)))
(assert (= "A" (str.at var56 556)))
(assert (= "U" (str.at var34 603)))
(assert (= "?" (str.at var55 279)))
(assert (= "(" (str.at var11 980)))
(assert (= "M" (str.at var0 501)))
(assert (= "D" (str.at var14 539)))
(assert (= "g" (str.at var11 670)))
(assert (= "b" (str.at var9 565)))
(assert (= "1" (str.at var59 593)))
(assert (= "`" (str.at var28 386)))
(assert (= "@" (str.at var25 245)))
(assert (= "U" (str.at var23 784)))
(assert (= "%" (str.at var53 630)))
(assert (= """" (str.at var14 55)))
(assert (= "E" (str.at var3 279)))
(assert (= "@" (str.at var60 563)))
(assert (= "Z" (str.at var39 515)))
(assert (= "Q" (str.at var41 378)))
(assert (= "t" (str.at var54 853)))
(assert (= "o" (str.at var9 153)))
(assert (= "A" (str.at var40 222)))
(assert (= "[" (str.at var57 509)))
(assert (= "Y" (str.at var10 946)))
(assert (= "y" (str.at var44 544)))
(assert (= "U" (str.at var52 347)))
(assert (= "," (str.at var6 472)))
(assert (= "k" (str.at var42 201)))
(assert (= "_" (str.at var18 73)))
(assert (= "4" (str.at var10 585)))
(assert (= "S" (str.at var56 60)))
(assert (= "|" (str.at var34 604)))
(assert (= "c" (str.at var27 99)))
(assert (= "V" (str.at var10 956)))
(assert (= "%" (str.at var20 816)))
(assert (= "v" (str.at var14 108)))
(assert (= "i" (str.at var55 363)))
(assert (= "s" (str.at var52 693)))
(assert (= "I" (str.at var55 682)))
(assert (= "0" (str.at var2 461)))
(assert (= "5" (str.at var24 580)))
(assert (= "3" (str.at var59 884)))
(assert (= "g" (str.at var53 532)))
(assert (= "k" (str.at var15 53)))
(assert (= "(" (str.at var33 449)))
(assert (= "Z" (str.at var39 873)))
(assert (= "a" (str.at var4 703)))
(assert (= "U" (str.at var18 104)))
(assert (= "X" (str.at var56 299)))
(assert (= "x" (str.at var50 904)))
(assert (= "M" (str.at var45 64)))
(assert (= "f" (str.at var26 779)))
(assert (= "h" (str.at var7 739)))
(assert (= "&" (str.at var21 936)))
(assert (= "b" (str.at var17 502)))
(assert (= "[" (str.at var5 454)))
(assert (= "T" (str.at var53 708)))
(assert (= "4" (str.at var59 307)))
(assert (= "*" (str.at var25 772)))
(assert (= "0" (str.at var10 375)))
(assert (= "_" (str.at var43 228)))
(assert (= "$" (str.at var15 968)))
(assert (= "W" (str.at var50 646)))
(assert (= "j" (str.at var24 582)))
(assert (= "@" (str.at var43 907)))
(assert (= "a" (str.at var16 338)))
(assert (= "X" (str.at var60 507)))
(assert (= "n" (str.at var45 464)))
(assert (= "q" (str.at var4 9)))
(assert (= "F" (str.at var51 384)))
(assert (= "y" (str.at var57 548)))
(assert (= "a" (str.at var1 76)))
(assert (= "7" (str.at var13 4)))
(assert (= "?" (str.at var48 566)))
(assert (= "a" (str.at var44 860)))
(assert (= "k" (str.at var46 944)))
(assert (= "d" (str.at var58 980)))
(assert (= "x" (str.at var54 958)))
(assert (= "I" (str.at var2 732)))
(assert (= "=" (str.at var55 855)))
(assert (= "x" (str.at var60 548)))
(assert (= "n" (str.at var35 107)))
(assert (= "'" (str.at var4 480)))
(assert (= "4" (str.at var3 921)))
(assert (= "(" (str.at var40 123)))
(assert (= "Y" (str.at var11 372)))
(assert (= "w" (str.at var40 130)))
(assert (= "{" (str.at var15 905)))
(assert (= "p" (str.at var35 575)))
(assert (= "g" (str.at var18 519)))
(assert (= "8" (str.at var32 342)))
(assert (= "A" (str.at var49 76)))
(assert (= ")" (str.at var57 537)))
(assert (= "@" (str.at var24 656)))
(assert (= "[" (str.at var51 974)))
(assert (= "f" (str.at var7 229)))
(assert (= "g" (str.at var23 230)))
(assert (= "." (str.at var39 67)))
(assert (= "," (str.at var28 645)))
(assert (= "%" (str.at var55 890)))
(assert (= "i" (str.at var41 848)))
(assert (= "=" (str.at var60 322)))
(assert (= "a" (str.at var31 964)))
(assert (= "v" (str.at var55 878)))
(assert (= "c" (str.at var34 533)))
(assert (= "H" (str.at var60 142)))
(assert (= "S" (str.at var22 531)))
(assert (= "v" (str.at var30 856)))
(assert (= "4" (str.at var27 432)))
(assert (= "x" (str.at var46 448)))
(assert (= "A" (str.at var17 843)))
(assert (= "]" (str.at var22 94)))
(assert (= "^" (str.at var41 649)))
(assert (= "I" (str.at var45 380)))
(assert (= "l" (str.at var48 17)))
(assert (= "V" (str.at var54 859)))
(assert (= "@" (str.at var34 222)))
(assert (= "3" (str.at var22 833)))
(assert (= "-" (str.at var44 13)))
(assert (= """" (str.at var46 609)))
(assert (= "j" (str.at var27 668)))
(assert (= "G" (str.at var13 435)))
(assert (= "?" (str.at var49 994)))
(assert (= "X" (str.at var26 114)))
(assert (= "|" (str.at var50 380)))
(assert (= ";" (str.at var4 270)))
(assert (= "]" (str.at var51 870)))
(assert (= "2" (str.at var52 683)))
(assert (= "f" (str.at var58 267)))
(assert (= "F" (str.at var44 340)))
(assert (= "-" (str.at var25 160)))
(assert (= "'" (str.at var11 327)))
(assert (= "[" (str.at var50 535)))
(assert (= "Z" (str.at var3 841)))
(assert (= "8" (str.at var55 6)))
(assert (= "1" (str.at var4 108)))
(assert (= "J" (str.at var22 563)))
(assert (= "J" (str.at var9 814)))
(assert (= "+" (str.at var51 618)))
(assert (= "c" (str.at var32 575)))
(assert (= "7" (str.at var18 28)))
(assert (= "G" (str.at var30 823)))
(assert (= "`" (str.at var49 586)))
(assert (= "!" (str.at var40 104)))
(assert (= "p" (str.at var23 38)))
(assert (= "J" (str.at var35 660)))
(assert (= "g" (str.at var11 756)))
(assert (= "m" (str.at var9 489)))
(assert (= "6" (str.at var56 751)))
(assert (= "d" (str.at var3 867)))
(assert (= "b" (str.at var45 283)))
(assert (= "{" (str.at var39 630)))
(assert (= "@" (str.at var52 647)))
(assert (= "'" (str.at var51 545)))
(assert (= "M" (str.at var48 483)))
(assert (= "V" (str.at var18 329)))
(assert (= "W" (str.at var2 923)))
(assert (= "o" (str.at var3 769)))
(assert (= "8" (str.at var6 326)))
(assert (= "/" (str.at var7 166)))
(assert (= "9" (str.at var53 15)))
(assert (= "k" (str.at var51 246)))
(assert (= "#" (str.at var42 12)))
(assert (= "!" (str.at var30 512)))
(assert (= "S" (str.at var32 536)))
(assert (= "u" (str.at var52 276)))
(assert (= "`" (str.at var23 223)))
(assert (= "U" (str.at var56 170)))
(assert (= "j" (str.at var0 213)))
(assert (= "y" (str.at var18 302)))
(assert (= "V" (str.at var36 320)))
(assert (= "," (str.at var34 669)))
(assert (= ")" (str.at var43 206)))
(assert (= "{" (str.at var39 768)))
(assert (= "6" (str.at var4 784)))
(assert (= "." (str.at var59 163)))
(assert (= "q" (str.at var7 359)))
(assert (= "c" (str.at var2 755)))
(assert (= "F" (str.at var59 988)))
(assert (= "J" (str.at var20 554)))
(assert (= "q" (str.at var36 773)))
(assert (= "0" (str.at var31 371)))
(assert (= "l" (str.at var44 208)))
(assert (= "@" (str.at var34 599)))
(assert (= "F" (str.at var3 951)))
(assert (= "'" (str.at var10 9)))
(assert (= "?" (str.at var53 848)))
(assert (= "A" (str.at var30 716)))
(assert (= "." (str.at var29 422)))
(assert (= "," (str.at var33 140)))
(assert (= "H" (str.at var5 678)))
(assert (= "/" (str.at var42 946)))
(assert (= "h" (str.at var2 277)))
(assert (= "`" (str.at var36 959)))
(assert (= "-" (str.at var47 962)))
(assert (= "+" (str.at var52 604)))
(assert (= "-" (str.at var58 396)))
(assert (= "L" (str.at var13 671)))
(assert (= "4" (str.at var51 907)))
(assert (= "/" (str.at var29 682)))
(assert (= "k" (str.at var9 291)))
(assert (= "r" (str.at var43 617)))
(assert (= "w" (str.at var45 731)))
(check-sat)
(get-model)